qbf_easy_train/easy_4521_SAT.qdimacs
p cnf 21 44
a 16 1 5 0
e 2 3 4 6 7 8 9 10 11 12 13 14 15 17 18 19 20 21 0
-3 -1 0
-3 2 0
1 -2 3 0
-6 -4 0
-6 -5 0
4 5 6 0
7 -6 0
7 6 0
8 -3 0
8 7 0
3 -7 -8 0
-9 1 0
-9 4 0
-1 -4 9 0
9 10 0
-9 10 0
13 12 0
13 5 0
-12 -5 -13 0
-15 -13 0
-15 -14 0
13 14 15 0
-16 -11 0
-16 -15 0
11 15 16 0
-10 -16 -17 0
10 16 -17 0
-10 16 17 0
10 -16 17 0
-8 17 -18 0
8 -17 -18 0
-8 -17 18 0
8 17 18 0
-20 -15 0
-20 19 0
15 -19 20 0
21 -18 0
21 20 0
18 -20 -21 0
-9 2 -18 1 17 -19 10 0
-15 5 17 0
-16 3 2 1 21 0
17 20 16 19 10 14 9 -15 0
21 0
