sat_easy_train/easy_4521_SAT.dimacs
p cnf 105 344
1 2 -3 0
-1 -2 -3 0
1 -2 3 0
-1 2 3 0
-6 -4 0
-6 -5 0
4 5 6 0
-3 -6 -7 0
3 6 -7 0
-3 6 7 0
3 -6 7 0
9 8 0
9 -2 0
-8 2 -9 0
7 9 -10 0
-7 -9 -10 0
7 -9 10 0
-7 9 10 0
-11 12 0
11 12 0
-14 12 0
-14 13 0
-12 -13 14 0
16 -14 0
16 -15 0
14 15 -16 0
18 16 0
18 -17 0
-16 17 -18 0
-20 14 0
-20 19 0
-14 -19 20 0
-22 2 0
-22 21 0
-2 -21 22 0
23 20 0
23 22 0
-20 -22 -23 0
-9 5 -24 0
9 -5 -24 0
-9 -5 24 0
9 5 24 0
-8 24 -25 0
8 -24 -25 0
-8 -24 25 0
8 24 25 0
-23 25 -26 0
23 -25 -26 0
-23 -25 26 0
23 25 26 0
-27 18 0
-27 -26 0
-18 26 27 0
-28 -12 0
-28 -14 0
12 14 28 0
28 -21 -29 0
-28 21 -29 0
28 21 29 0
-28 -21 29 0
-30 11 0
-30 -1 0
-11 1 30 0
-29 -30 -31 0
29 30 -31 0
-29 30 31 0
29 -30 31 0
32 -16 0
32 28 0
16 -28 -32 0
-34 -33 0
-34 -12 0
33 12 34 0
-32 34 -35 0
32 -34 -35 0
-32 -34 35 0
32 34 35 0
-35 -21 -36 0
35 21 -36 0
-35 21 36 0
35 -21 36 0
37 -35 0
37 -7 0
35 7 -37 0
19 -37 -38 0
-19 37 -38 0
19 37 38 0
-19 -37 38 0
39 -1 -40 0
-39 1 -40 0
39 1 40 0
-39 -1 40 0
40 -8 -41 0
-40 8 -41 0
40 8 41 0
-40 -8 41 0
38 -41 -42 0
-38 41 -42 0
38 41 42 0
-38 -41 42 0
43 36 0
43 -42 0
-36 42 -43 0
31 -43 -44 0
-31 43 -44 0
31 43 44 0
-31 -43 44 0
27 -44 -45 0
-27 44 -45 0
27 44 45 0
-27 -44 45 0
46 10 0
46 45 0
-10 -45 -46 0
-48 39 0
-48 -47 0
-39 47 48 0
16 -4 -49 0
-16 4 -49 0
16 4 49 0
-16 -4 49 0
-50 -8 0
-50 -15 0
8 15 50 0
51 20 0
51 20 0
-20 -51 0
52 50 0
52 51 0
-50 -51 -52 0
-53 49 0
-53 52 0
-49 -52 53 0
54 -48 0
54 -53 0
48 53 -54 0
-46 54 -55 0
46 -54 -55 0
-46 -54 55 0
46 54 55 0
-56 33 0
-56 12 0
-33 -12 56 0
57 -19 0
57 56 0
19 -56 -57 0
-57 -40 -58 0
57 40 -58 0
-57 40 58 0
57 -40 58 0
59 -55 0
59 58 0
55 -58 -59 0
-60 34 0
-60 22 0
-34 -22 60 0
61 57 0
61 37 0
-57 -37 -61 0
-6 61 -62 0
6 -61 -62 0
-6 -61 62 0
6 61 62 0
-60 62 -63 0
60 -62 -63 0
-60 -62 63 0
60 62 63 0
14 -17 -64 0
-14 17 -64 0
14 17 64 0
-14 -17 64 0
65 47 0
65 -64 0
-47 64 -65 0
66 63 0
66 -65 0
-63 65 -66 0
67 28 -68 0
-67 -28 -68 0
67 -28 68 0
-67 28 68 0
-69 12 0
-69 7 0
-12 -7 69 0
70 -68 0
70 -69 0
68 69 -70 0
71 66 0
71 -70 0
-66 70 -71 0
67 -15 -72 0
-67 15 -72 0
67 15 72 0
-67 -15 72 0
50 11 -73 0
-50 -11 -73 0
50 -11 73 0
-50 11 73 0
74 -72 0
74 73 0
72 -73 -74 0
-71 -74 -75 0
71 74 -75 0
-71 74 75 0
71 -74 75 0
76 -33 0
76 -28 0
33 28 -76 0
-77 -4 0
-77 1 0
4 -1 77 0
-14 4 -78 0
14 -4 -78 0
-14 -4 78 0
14 4 78 0
79 78 0
79 -28 0
-78 28 -79 0
-80 11 0
-80 79 0
-11 -79 80 0
-81 -77 0
-81 80 0
77 -80 81 0
-83 -9 0
-83 82 0
9 -82 83 0
-84 -81 0
-84 -83 0
81 83 84 0
85 76 0
85 -84 0
-76 84 -85 0
86 8 0
86 -21 0
-8 21 -86 0
-87 13 0
-87 11 0
-13 -11 87 0
-88 86 0
-88 -87 0
-86 87 88 0
89 -85 0
89 88 0
85 -88 -89 0
90 79 0
90 -34 0
-79 34 -90 0
-12 5 -91 0
12 -5 -91 0
-12 -5 91 0
12 5 91 0
57 64 -92 0
-57 -64 -92 0
57 -64 92 0
-57 64 92 0
93 -91 0
93 92 0
91 -92 -93 0
-94 90 0
-94 -93 0
-90 93 94 0
95 -89 0
95 94 0
89 -94 -95 0
-96 -40 0
-96 4 0
40 -4 96 0
-7 16 -97 0
7 -16 -97 0
-7 -16 97 0
7 16 97 0
-98 -96 0
-98 -97 0
96 97 98 0
99 2 0
99 47 0
-2 -47 -99 0
100 4 0
100 9 0
-4 -9 -100 0
101 -99 0
101 100 0
99 -100 -101 0
-98 101 -102 0
98 -101 -102 0
-98 -101 102 0
98 101 102 0
-103 95 0
-103 -102 0
-95 102 103 0
-75 -103 -104 0
75 103 -104 0
-75 103 104 0
75 -103 104 0
-105 -59 0
-105 -104 0
59 104 105 0
32 24 0
72 14 0
23 -27 0
-66 86 82 0
103 -64 0
15 -8 -7 -31 4 0
72 56 0
22 -55 52 0
-73 -48 0
-96 103 -85 86 0
-19 -58 -80 -62 0
101 -34 0
-26 100 -68 0
-42 -34 0
56 -22 93 0
86 73 41 62 14 0
20 56 47 0
4 18 103 69 0
-77 27 0
-64 95 18 -6 0
-98 45 0
-4 -68 -94 0
-78 26 0
51 68 0
74 -59 0
-45 55 -19 73 71 0
-43 35 0
-69 -92 82 91 -49 -55 0
-19 -48 -62 55 60 -49 0
-98 54 0
26 22 19 -96 54 0
-65 -96 -36 -56 0
76 101 -55 77 36 85 0
-87 -46 102 69 72 -80 0
-8 14 0
-46 -15 -27 0
62 -59 42 20 -103 72 0
77 57 -50 -90 6 -88 0
32 69 68 -40 -18 0
-36 -75 0
48 103 -101 28 0
-69 7 39 28 61 0
15 -54 13 -5 -25 0
-23 34 29 -2 90 0
91 24 5 0
105 0
